c nombre: 16
c densidad: 0.3
p edges 70 741
e 1 3
e 1 4
e 1 5
e 1 11
e 1 12
e 1 13
e 1 22
e 1 25
e 1 26
e 1 27
e 1 30
e 1 37
e 1 43
e 1 44
e 1 45
e 1 48
e 1 53
e 1 55
e 1 56
e 1 63
e 1 64
e 1 65
e 1 68
e 2 3
e 2 6
e 2 8
e 2 9
e 2 10
e 2 11
e 2 13
e 2 14
e 2 23
e 2 24
e 2 26
e 2 30
e 2 31
e 2 32
e 2 34
e 2 38
e 2 46
e 2 54
e 2 57
e 2 58
e 3 5
e 3 9
e 3 10
e 3 17
e 3 19
e 3 20
e 3 31
e 3 38
e 3 41
e 3 43
e 3 45
e 3 54
e 3 58
e 3 61
e 3 69
e 4 5
e 4 6
e 4 7
e 4 9
e 4 10
e 4 11
e 4 15
e 4 17
e 4 20
e 4 22
e 4 23
e 4 27
e 4 28
e 4 29
e 4 33
e 4 34
e 4 35
e 4 37
e 4 38
e 4 41
e 4 42
e 4 43
e 4 46
e 4 47
e 4 48
e 4 51
e 4 55
e 4 58
e 4 68
e 4 70
e 5 8
e 5 10
e 5 11
e 5 13
e 5 16
e 5 18
e 5 31
e 5 32
e 5 34
e 5 39
e 5 48
e 5 51
e 5 52
e 5 53
e 5 57
e 5 59
e 5 63
e 5 69
e 6 11
e 6 16
e 6 22
e 6 29
e 6 36
e 6 43
e 6 44
e 6 53
e 6 54
e 6 55
e 6 58
e 6 59
e 6 61
e 6 62
e 6 66
e 6 69
e 7 8
e 7 10
e 7 12
e 7 17
e 7 24
e 7 31
e 7 38
e 7 44
e 7 45
e 7 49
e 7 50
e 7 56
e 7 58
e 7 66
e 7 69
e 8 11
e 8 12
e 8 13
e 8 18
e 8 19
e 8 26
e 8 37
e 8 38
e 8 41
e 8 44
e 8 47
e 8 48
e 8 53
e 8 54
e 8 56
e 8 57
e 8 67
e 8 68
e 9 11
e 9 14
e 9 15
e 9 17
e 9 18
e 9 19
e 9 24
e 9 28
e 9 30
e 9 34
e 9 37
e 9 44
e 9 54
e 9 58
e 9 63
e 9 67
e 9 68
e 10 11
e 10 18
e 10 20
e 10 21
e 10 27
e 10 31
e 10 33
e 10 36
e 10 37
e 10 39
e 10 40
e 10 44
e 10 45
e 10 49
e 10 50
e 10 52
e 10 68
e 10 70
e 11 12
e 11 13
e 11 19
e 11 20
e 11 22
e 11 23
e 11 25
e 11 26
e 11 32
e 11 35
e 11 37
e 11 45
e 11 46
e 11 50
e 11 52
e 11 53
e 11 54
e 11 57
e 11 58
e 11 63
e 11 65
e 11 69
e 12 18
e 12 26
e 12 35
e 12 39
e 12 41
e 12 43
e 12 46
e 12 47
e 12 49
e 12 52
e 12 56
e 12 67
e 12 69
e 13 18
e 13 22
e 13 23
e 13 26
e 13 34
e 13 35
e 13 36
e 13 40
e 13 48
e 13 51
e 13 53
e 13 54
e 13 65
e 13 66
e 14 15
e 14 21
e 14 23
e 14 24
e 14 26
e 14 30
e 14 31
e 14 35
e 14 36
e 14 38
e 14 39
e 14 41
e 14 42
e 14 52
e 14 55
e 14 56
e 14 65
e 14 67
e 14 70
e 15 16
e 15 17
e 15 18
e 15 21
e 15 26
e 15 29
e 15 32
e 15 39
e 15 48
e 15 50
e 15 51
e 15 58
e 15 62
e 15 65
e 15 67
e 15 70
e 16 18
e 16 19
e 16 20
e 16 22
e 16 25
e 16 35
e 16 36
e 16 37
e 16 40
e 16 41
e 16 43
e 16 44
e 16 48
e 16 51
e 16 56
e 16 62
e 16 68
e 16 69
e 17 20
e 17 24
e 17 25
e 17 26
e 17 27
e 17 29
e 17 38
e 17 40
e 17 43
e 17 45
e 17 46
e 17 50
e 17 51
e 17 52
e 17 60
e 17 61
e 17 63
e 18 20
e 18 24
e 18 32
e 18 34
e 18 38
e 18 44
e 18 45
e 18 49
e 18 50
e 18 52
e 18 55
e 18 58
e 18 59
e 18 65
e 18 66
e 18 69
e 19 21
e 19 23
e 19 24
e 19 30
e 19 32
e 19 35
e 19 38
e 19 40
e 19 41
e 19 44
e 19 48
e 19 50
e 19 55
e 19 56
e 19 61
e 19 67
e 19 69
e 20 21
e 20 22
e 20 25
e 20 26
e 20 30
e 20 31
e 20 32
e 20 33
e 20 35
e 20 36
e 20 39
e 20 42
e 20 44
e 20 45
e 20 49
e 20 51
e 20 53
e 20 55
e 20 60
e 20 65
e 20 69
e 20 70
e 21 22
e 21 28
e 21 31
e 21 33
e 21 38
e 21 40
e 21 45
e 21 53
e 21 55
e 21 61
e 21 62
e 21 63
e 21 64
e 21 67
e 21 68
e 22 23
e 22 27
e 22 29
e 22 31
e 22 35
e 22 38
e 22 40
e 22 42
e 22 43
e 22 44
e 22 45
e 22 49
e 22 52
e 22 54
e 22 59
e 22 60
e 22 64
e 22 65
e 22 69
e 23 24
e 23 25
e 23 27
e 23 28
e 23 39
e 23 40
e 23 41
e 23 45
e 23 47
e 23 50
e 23 57
e 23 58
e 23 60
e 23 67
e 23 68
e 24 27
e 24 30
e 24 35
e 24 44
e 24 47
e 24 52
e 24 56
e 24 57
e 24 59
e 24 60
e 24 63
e 24 64
e 24 66
e 24 67
e 25 29
e 25 34
e 25 36
e 25 39
e 25 40
e 25 44
e 25 48
e 25 52
e 25 57
e 25 58
e 25 63
e 25 64
e 25 65
e 25 69
e 26 28
e 26 31
e 26 33
e 26 36
e 26 38
e 26 39
e 26 44
e 26 62
e 26 63
e 26 64
e 26 67
e 26 69
e 27 29
e 27 32
e 27 40
e 27 41
e 27 42
e 27 45
e 27 46
e 27 51
e 27 52
e 27 61
e 27 63
e 27 68
e 27 70
e 28 29
e 28 31
e 28 34
e 28 37
e 28 40
e 28 43
e 28 44
e 28 48
e 28 50
e 28 51
e 28 57
e 28 58
e 28 59
e 28 62
e 28 63
e 28 64
e 28 66
e 28 69
e 28 70
e 29 31
e 29 32
e 29 34
e 29 37
e 29 41
e 29 43
e 29 44
e 29 45
e 29 47
e 29 48
e 29 49
e 29 59
e 29 60
e 29 62
e 29 65
e 30 43
e 30 44
e 30 46
e 30 50
e 30 52
e 30 53
e 30 56
e 30 66
e 30 69
e 31 32
e 31 37
e 31 41
e 31 47
e 31 49
e 31 50
e 31 53
e 31 55
e 31 60
e 31 62
e 31 64
e 32 35
e 32 36
e 32 37
e 32 40
e 32 42
e 32 43
e 32 47
e 32 48
e 32 52
e 32 53
e 32 54
e 32 55
e 32 59
e 32 66
e 32 69
e 33 35
e 33 37
e 33 43
e 33 45
e 33 46
e 33 50
e 33 52
e 33 54
e 33 55
e 33 56
e 33 57
e 33 67
e 34 35
e 34 36
e 34 38
e 34 43
e 34 46
e 34 55
e 34 60
e 34 62
e 34 66
e 34 69
e 35 36
e 35 38
e 35 40
e 35 52
e 35 54
e 35 58
e 35 61
e 35 66
e 36 38
e 36 42
e 36 44
e 36 47
e 36 51
e 36 53
e 36 57
e 36 59
e 36 64
e 36 65
e 36 67
e 36 69
e 37 38
e 37 44
e 37 45
e 37 47
e 37 49
e 37 50
e 37 53
e 37 54
e 37 58
e 37 60
e 37 63
e 38 40
e 38 42
e 38 45
e 38 48
e 38 50
e 38 58
e 38 62
e 38 64
e 38 67
e 39 43
e 39 48
e 39 51
e 39 55
e 39 56
e 39 58
e 39 64
e 39 66
e 39 67
e 40 41
e 40 42
e 40 57
e 40 58
e 40 64
e 40 67
e 40 69
e 41 49
e 41 50
e 41 52
e 41 57
e 41 68
e 42 43
e 42 45
e 42 47
e 42 54
e 42 58
e 42 68
e 43 45
e 43 50
e 43 57
e 43 61
e 43 64
e 43 70
e 44 46
e 44 48
e 44 52
e 44 53
e 44 54
e 44 55
e 44 56
e 44 57
e 44 66
e 44 68
e 44 70
e 45 46
e 45 48
e 45 50
e 45 55
e 45 64
e 45 66
e 45 69
e 46 48
e 46 49
e 46 52
e 46 55
e 46 65
e 46 69
e 46 70
e 47 51
e 47 63
e 47 67
e 47 70
e 48 52
e 48 54
e 48 55
e 48 56
e 48 60
e 48 62
e 48 67
e 48 68
e 49 50
e 49 61
e 49 64
e 49 66
e 49 67
e 49 70
e 50 51
e 50 53
e 50 66
e 50 67
e 50 68
e 51 53
e 51 56
e 51 59
e 51 60
e 51 63
e 51 64
e 51 69
e 51 70
e 52 53
e 52 55
e 53 54
e 53 55
e 53 56
e 53 59
e 53 65
e 53 67
e 53 70
e 54 58
e 54 59
e 54 60
e 54 66
e 55 57
e 55 58
e 55 59
e 55 60
e 55 65
e 55 66
e 55 68
e 55 70
e 56 58
e 56 66
e 57 58
e 57 59
e 57 60
e 57 61
e 57 63
e 57 66
e 57 69
e 57 70
e 58 61
e 58 65
e 58 68
e 58 69
e 59 61
e 59 62
e 59 70
e 60 62
e 60 63
e 60 67
e 60 69
e 61 62
e 61 68
e 62 65
e 63 66
e 63 69
e 64 66
e 65 69
e 66 68
e 66 70
e 67 68
e 67 69
e 68 69
e 68 70
